20
1 0 80
2 0 38
2 1 13
3 0 48
3 1 59
3 2 62
4 0 1
4 2 49
4 3 74
5 0 14
5 1 46
5 2 78
5 3 51
5 4 80
6 0 63
6 1 27
6 2 68
6 3 64
6 5 8
7 0 37
7 1 46
7 2 19
7 3 45
7 4 37
7 5 9
7 6 78
8 0 22
8 1 40
8 2 64
8 3 3
8 4 65
8 5 20
8 6 46
8 7 66
9 0 38
9 1 67
9 2 19
9 4 43
9 5 40
9 6 64
9 7 6
9 8 42
10 0 73
10 1 51
10 2 76
10 3 44
10 4 59
10 5 78
10 6 24
10 7 42
10 8 79
10 9 8
11 0 46
11 1 71
11 2 53
11 3 18
11 4 14
11 5 16
11 6 51
11 7 68
11 8 71
11 9 4
11 10 52
12 0 68
12 1 74
12 2 7
12 3 48
12 4 79
12 5 63
12 6 39
12 7 52
12 8 63
12 9 3
12 10 38
12 11 19
13 0 69
13 1 32
13 2 41
13 3 65
13 4 4
13 5 78
13 6 31
13 7 60
13 8 5
13 9 46
13 10 13
13 11 2
13 12 49
14 0 10
14 1 67
14 2 32
14 3 75
14 4 79
14 5 25
14 6 30
14 8 7
14 9 31
14 10 14
14 11 36
14 12 69
14 13 49
15 0 53
15 1 40
15 2 57
15 3 19
15 4 58
15 5 23
15 6 14
15 7 53
15 8 68
15 9 44
15 10 73
15 11 23
15 12 41
15 13 12
15 14 63
16 1 65
16 3 53
16 4 30
16 5 75
16 6 37
16 7 63
16 8 75
16 9 53
16 10 72
16 11 59
16 12 30
16 14 28
16 15 3
17 0 39
17 1 74
17 2 75
17 3 78
17 4 48
17 5 65
17 6 36
17 7 4
17 9 36
17 10 2
17 11 18
17 13 51
17 14 72
17 15 9
17 16 63
18 0 30
18 1 5
18 2 6
18 3 18
18 6 76
18 7 16
18 8 44
18 9 57
18 10 41
18 11 50
18 12 77
18 13 59
18 14 29
18 15 59
18 16 36
18 17 33
19 0 61
19 1 47
19 2 38
19 3 37
19 4 58
19 5 64
19 6 33
19 7 52
19 8 23
19 9 59
19 10 63
19 12 53
19 13 76
19 14 35
19 15 62
19 16 35
19 17 65
19 18 75
